
Gurobi 6.0.4 (mac64) logging started Thu Mar 24 17:21:10 2016


Gurobi 6.0.4 (mac64) logging started Thu Mar 24 17:22:11 2016


Gurobi 6.0.4 (mac64) logging started Thu Mar 24 21:05:33 2016


Gurobi 6.0.4 (mac64) logging started Thu Mar 24 21:15:17 2016


Gurobi 6.0.4 (mac64) logging started Thu Mar 24 21:23:19 2016


Gurobi 6.0.4 (mac64) logging started Thu Mar 24 21:24:38 2016


Gurobi 6.0.4 (mac64) logging started Thu Mar 24 21:24:47 2016


Gurobi 6.0.4 (mac64) logging started Thu Mar 24 21:24:53 2016


Gurobi 6.0.4 (mac64) logging started Thu Mar 24 21:25:05 2016


Gurobi 6.0.4 (mac64) logging started Thu Mar 24 21:25:13 2016


Gurobi 6.0.4 (mac64) logging started Thu Mar 24 21:25:59 2016


Gurobi 6.0.4 (mac64) logging started Thu Mar 24 21:31:20 2016


Gurobi 6.0.4 (mac64) logging started Thu Mar 24 22:00:47 2016


Gurobi 6.0.4 (mac64) logging started Thu Mar 24 22:01:49 2016


Gurobi 6.0.4 (mac64) logging started Tue Mar 29 21:16:05 2016


Gurobi 6.0.4 (mac64) logging started Tue Mar 29 21:16:19 2016


Gurobi 6.0.4 (mac64) logging started Tue Mar 29 21:16:31 2016


Gurobi 6.0.4 (mac64) logging started Tue Mar 29 21:16:45 2016


Gurobi 6.0.4 (mac64) logging started Tue Mar 29 21:16:58 2016


Gurobi 6.0.4 (mac64) logging started Tue Mar 29 21:27:43 2016


Gurobi 6.0.4 (mac64) logging started Tue Mar 29 21:28:04 2016


Gurobi 6.0.4 (mac64) logging started Tue Mar 29 22:55:38 2016


Gurobi 6.0.4 (mac64) logging started Tue Mar 29 22:55:53 2016


Gurobi 6.0.4 (mac64) logging started Tue Mar 29 22:57:49 2016


Gurobi 6.0.4 (mac64) logging started Tue Mar 29 22:58:00 2016


Gurobi 6.0.4 (mac64) logging started Tue Mar 29 22:58:09 2016


Gurobi 6.0.4 (mac64) logging started Tue Mar 29 23:02:12 2016


Gurobi 6.0.4 (mac64) logging started Tue Mar 29 23:02:40 2016


Gurobi 6.0.4 (mac64) logging started Tue Mar 29 23:02:54 2016


Gurobi 6.0.4 (mac64) logging started Tue Mar 29 23:03:18 2016


Gurobi 6.0.4 (mac64) logging started Tue Mar 29 23:03:41 2016


Gurobi 6.0.4 (mac64) logging started Tue Mar 29 23:04:56 2016


Gurobi 6.0.4 (mac64) logging started Tue Mar 29 23:05:32 2016


Gurobi 6.0.4 (mac64) logging started Tue Mar 29 23:06:16 2016


Gurobi 6.0.4 (mac64) logging started Tue Mar 29 23:07:14 2016


Gurobi 6.0.4 (mac64) logging started Tue Mar 29 23:09:04 2016


Gurobi 6.0.4 (mac64) logging started Tue Mar 29 23:10:03 2016


Gurobi 6.0.4 (mac64) logging started Tue Mar 29 23:10:52 2016


Gurobi 6.0.4 (mac64) logging started Tue Mar 29 23:11:21 2016


Gurobi 6.0.4 (mac64) logging started Tue Mar 29 23:12:05 2016


Gurobi 6.0.4 (mac64) logging started Tue Mar 29 23:12:22 2016


Gurobi 6.0.4 (mac64) logging started Tue Mar 29 23:12:31 2016


Gurobi 6.0.4 (mac64) logging started Tue Mar 29 23:29:19 2016


Gurobi 6.0.4 (mac64) logging started Tue Mar 29 23:32:05 2016


Gurobi 6.0.4 (mac64) logging started Tue Mar 29 23:32:19 2016


Gurobi 6.0.4 (mac64) logging started Tue Mar 29 23:33:22 2016


Gurobi 6.0.4 (mac64) logging started Tue Mar 29 23:33:34 2016


Gurobi 6.0.4 (mac64) logging started Tue Mar 29 23:34:43 2016


Gurobi 6.0.4 (mac64) logging started Tue Mar 29 23:36:11 2016


Gurobi 6.0.4 (mac64) logging started Tue Mar 29 23:36:20 2016


Gurobi 6.0.4 (mac64) logging started Tue Mar 29 23:36:44 2016


Gurobi 6.0.4 (mac64) logging started Tue Mar 29 23:37:25 2016


Gurobi 6.0.4 (mac64) logging started Tue Mar 29 23:37:52 2016


Gurobi 6.0.4 (mac64) logging started Tue Mar 29 23:38:10 2016


Gurobi 6.0.4 (mac64) logging started Tue Mar 29 23:38:29 2016


Gurobi 6.0.4 (mac64) logging started Tue Mar 29 23:38:56 2016


Gurobi 6.0.4 (mac64) logging started Tue Mar 29 23:39:04 2016


Gurobi 6.0.4 (mac64) logging started Tue Mar 29 23:39:27 2016


Gurobi 6.0.4 (mac64) logging started Tue Mar 29 23:39:43 2016


Gurobi 6.0.4 (mac64) logging started Thu Mar 31 14:46:35 2016


Gurobi 6.0.4 (mac64) logging started Thu Mar 31 15:12:06 2016


Gurobi 6.0.4 (mac64) logging started Thu Mar 31 15:12:45 2016


Gurobi 6.0.4 (mac64) logging started Thu Mar 31 15:12:51 2016


Gurobi 6.0.4 (mac64) logging started Thu Mar 31 15:13:04 2016


Gurobi 6.0.4 (mac64) logging started Thu Mar 31 15:13:50 2016


Gurobi 6.0.4 (mac64) logging started Thu Mar 31 15:14:17 2016


Gurobi 6.0.4 (mac64) logging started Thu Mar 31 15:14:32 2016


Gurobi 6.0.4 (mac64) logging started Thu Mar 31 15:16:09 2016


Gurobi 6.0.4 (mac64) logging started Thu Mar 31 15:18:34 2016


Gurobi 6.0.4 (mac64) logging started Thu Mar 31 15:26:58 2016


Gurobi 6.0.4 (mac64) logging started Thu Mar 31 15:27:13 2016


Gurobi 6.0.4 (mac64) logging started Thu Mar 31 15:27:59 2016


Gurobi 6.0.4 (mac64) logging started Thu Mar 31 15:28:14 2016


Gurobi 6.0.4 (mac64) logging started Thu Mar 31 15:34:21 2016


Gurobi 6.0.4 (mac64) logging started Thu Mar 31 15:35:15 2016


Gurobi 6.0.4 (mac64) logging started Thu Mar 31 15:35:38 2016


Gurobi 6.0.4 (mac64) logging started Thu Mar 31 15:36:47 2016


Gurobi 6.0.4 (mac64) logging started Thu Mar 31 15:37:03 2016


Gurobi 6.0.4 (mac64) logging started Thu Mar 31 15:37:53 2016


Gurobi 6.0.4 (mac64) logging started Thu Mar 31 15:38:24 2016


Gurobi 6.0.4 (mac64) logging started Thu Mar 31 15:38:46 2016


Gurobi 6.0.4 (mac64) logging started Thu Mar 31 15:39:07 2016


Gurobi 6.0.4 (mac64) logging started Thu Mar 31 16:33:54 2016


Gurobi 6.0.4 (mac64) logging started Thu Mar 31 16:34:04 2016


Gurobi 6.0.4 (mac64) logging started Thu Mar 31 16:34:15 2016


Gurobi 6.0.4 (mac64) logging started Thu Mar 31 16:45:07 2016


Gurobi 6.0.4 (mac64) logging started Thu Mar 31 16:45:16 2016


Gurobi 6.0.4 (mac64) logging started Thu Mar 31 16:46:34 2016


Gurobi 6.0.4 (mac64) logging started Thu Mar 31 16:46:48 2016


Gurobi 6.0.4 (mac64) logging started Thu Mar 31 16:47:02 2016


Gurobi 6.0.4 (mac64) logging started Thu Mar 31 16:49:07 2016


Gurobi 6.0.4 (mac64) logging started Thu Mar 31 16:49:36 2016


Gurobi 6.0.4 (mac64) logging started Thu Mar 31 17:05:52 2016


Gurobi 6.0.4 (mac64) logging started Thu Mar 31 17:06:01 2016


Gurobi 6.0.4 (mac64) logging started Thu Mar 31 17:06:18 2016


Gurobi 6.0.4 (mac64) logging started Thu Mar 31 17:08:57 2016


Gurobi 6.0.4 (mac64) logging started Thu Mar 31 17:09:16 2016


Gurobi 6.0.4 (mac64) logging started Thu Mar 31 17:10:07 2016


Gurobi 6.0.4 (mac64) logging started Thu Mar 31 17:12:10 2016


Gurobi 6.0.4 (mac64) logging started Fri Apr  1 22:09:57 2016


Gurobi 6.0.4 (mac64) logging started Fri Apr  1 22:13:34 2016


Gurobi 6.0.4 (mac64) logging started Fri Apr  1 22:14:17 2016


Gurobi 6.0.4 (mac64) logging started Fri Apr  1 22:16:38 2016


Gurobi 6.0.4 (mac64) logging started Fri Apr  1 22:17:06 2016


Gurobi 6.0.4 (mac64) logging started Fri Apr  1 22:21:19 2016


Gurobi 6.0.4 (mac64) logging started Fri Apr  1 22:21:28 2016


Gurobi 6.0.4 (mac64) logging started Fri Apr  1 22:21:48 2016


Gurobi 6.0.4 (mac64) logging started Fri Apr  1 22:21:58 2016


Gurobi 6.0.4 (mac64) logging started Fri Apr  1 22:22:11 2016


Gurobi 6.0.4 (mac64) logging started Fri Apr  1 22:22:16 2016


Gurobi 6.0.4 (mac64) logging started Fri Apr  1 22:29:00 2016


Gurobi 6.0.4 (mac64) logging started Fri Apr  1 22:29:54 2016


Gurobi 6.0.4 (mac64) logging started Fri Apr  1 22:35:56 2016


Gurobi 6.0.4 (mac64) logging started Fri Apr  1 22:38:38 2016


Gurobi 6.0.4 (mac64) logging started Fri Apr  1 22:40:51 2016


Gurobi 6.0.4 (mac64) logging started Fri Apr  1 22:40:58 2016


Gurobi 6.0.4 (mac64) logging started Fri Apr  1 22:44:06 2016


Gurobi 6.0.4 (mac64) logging started Fri Apr  1 22:44:57 2016


Gurobi 6.0.4 (mac64) logging started Fri Apr  1 22:46:05 2016


Gurobi 6.0.4 (mac64) logging started Fri Apr  1 22:47:15 2016


Gurobi 6.0.4 (mac64) logging started Fri Apr  1 22:47:59 2016


Gurobi 6.0.4 (mac64) logging started Fri Apr  1 22:51:41 2016


Gurobi 6.0.4 (mac64) logging started Fri Apr  1 23:00:27 2016


Gurobi 6.0.4 (mac64) logging started Fri Apr  1 23:43:43 2016


Gurobi 6.0.4 (mac64) logging started Fri Apr  1 23:44:12 2016


Gurobi 6.0.4 (mac64) logging started Fri Apr  1 23:48:43 2016


Gurobi 6.0.4 (mac64) logging started Fri Apr  1 23:49:07 2016


Gurobi 6.0.4 (mac64) logging started Fri Apr  1 23:49:44 2016


Gurobi 6.0.4 (mac64) logging started Fri Apr  1 23:50:42 2016


Gurobi 6.0.4 (mac64) logging started Fri Apr  1 23:52:22 2016


Gurobi 6.0.4 (mac64) logging started Fri Apr  1 23:53:32 2016


Gurobi 6.0.4 (mac64) logging started Fri Apr  1 23:53:56 2016

